NAME : pairopt.-195405.tour
COMMENT : Length = -195405
COMMENT : Found by LKH-3 [Keld Helsgaun] Sun Jan 14 20:52:21 2024
TYPE : TOUR
DIMENSION : 26
TOUR_SECTION
1
3
13
17
15
21
6
5
4
7
10
8
24
22
23
25
26
2
9
11
12
14
16
18
19
20
-1
EOF
